692113
0,35,6,209,182,19,116,15,188,184,2,137,59,136,14,29,63,43,4,155,222,175,219,12,16,46,224,47,110,133,18,226,124,45,213,13,164,193,96,7,119,109,200,9,197,199,64,153,163,196,142,10,75,56,173,28,113,190,151,121,50,176,225,68,22,207,158,177,30,198,97,41,159,112,72,208,125,69,85,217,205,135,180,194,118,192,83,94,78,166,84,187,123,172,130,147,181,60,122,24,79,131,51,220,58,138,57,212,92,167,171,203,1,114,148,76,221,40,127,105,140,218,23,65,189,98,215,99,52,91,17,55,53,174,104,201,120,179,157,81,229,44,211,103,102,186,11,145,128,152,227,87,108,185,170,149,89,169,141,3,20,216,32,223,37,202,5,8,165,95,90,67,210,144,143,25,21,88,115,183,100,160,106,195,178,191,36,33,204,74,214,77,27,150,49,107,93,34,86,54,61,101,129,80,39,168,26,111,154,132,228,161,134,82,156,73,38,206,42,146,126,162,66,48,70,139,117,31,62,71,0